
        $ From http://www.csplib.org/Problems/prob009/data/helmut.pdf
        $ Problem number 107
        $ Sequence length : 25
        language ESSENCE' 1.0
        letting sizemaster be 368
        letting sizes be sequence(1,6,15,16,17,18,22,25,31,33,39,42,45,46,47,48,51,69,72,88,91,96,112,160,208)
        